1 2
2019 12 15 55.970  37.410 11000  10.0
2019 12 15 58.919  48.696 11000  10.0
2019 12 15 60.727  61.639 11000  10.0
2019 12 15 61.176  75.515 11000  10.0
2019 12 15 60.204  89.165 11000  10.0
2019 12 15 57.940 101.543 11000  10.0
2019 12 15 54.635 112.148 11000  10.0
2019 12 15 50.551 120.991 11000  10.0
2019 12 15 45.909 128.339 11000  10.0
2019 12 15 40.870 134.507 11000  10.0
2019 12 15 35.550 139.780 11000  10.0
2014 02 15 55.970  37.410 11000  10.0
2014 02 15 58.919  48.696 11000  10.0
2014 02 15 60.727  61.639 11000  10.0
2014 02 15 61.176  75.515 11000  10.0
2014 02 15 60.204  89.165 11000  10.0
2014 02 15 57.940 101.543 11000  10.0
2014 02 15 54.635 112.148 11000  10.0
2014 02 15 50.551 120.991 11000  10.0
2014 02 15 45.909 128.339 11000  10.0
2014 02 15 40.870 134.507 11000  10.0
2014 02 15 35.550 139.780 11000  10.0
2026 09 01 55.970  37.410 11000  10.0
2026 09 01 61.176  75.515 11000  10.0
2026 09 01 35.550 139.780 11000  10.0
2019 12 15 61.176  75.515 11000  -2.45
2019 12 15 61.176  75.515 11000 -12.45
2014 02 15 61.176  75.515 11000  -2.45
2014 02 15 61.176  75.515 11000 -12.45
2019 12 15 35.550 139.780 11000  -2.45
2019 12 15 35.550 139.780 11000 -12.45
2019 12 15 55.970  37.410     0  10.0
2019 12 15 55.970  37.410  3000  10.0
2019 12 15 55.970  37.410  6000  10.0
2019 12 15 55.970  37.410  9000  10.0
2019 12 15 55.970  37.410 10000  10.0
2019 12 15 55.970  37.410 12000  10.0
2019 12 15 55.970  37.410 13000  10.0
