1 0
0.0    2.1947  231.4654  10.0
11.1   2.1947  231.4654  10.0
68.8   2.1947  231.4654  10.0
100.0  2.1947  231.4654  10.0
150.0  2.1947  231.4654  10.0
0.0    1.3758  231.4654  10.0
11.1   1.3758  231.4654  10.0
68.8   1.3758  231.4654  10.0
100.0  1.3758  231.4654  10.0
150.0  1.3758  231.4654  10.0
0.0   11.2349  231.4654  10.0
11.1  11.2349  231.4654  10.0
68.8  11.2349  231.4654  10.0
100.0 11.2349  231.4654  10.0
150.0 11.2349  231.4654  10.0
11.1   1.3758  231.4654  100.0
11.1   1.3758  231.4654  -2.45
11.1   1.3758  231.4654  -12.45
11.1   1.3758  231.4654  -5.0
11.1   1.3758  231.4654  -15.0
